g9 0 1 0 8 20170614 0 4 0 240	# problem hs119
 16 8 1 0 8	# vars, constraints, objectives, ranges, eqns
 0 1	# nonlinear constraints, objectives
 0 0	# network constraints: nonlinear, linear
 0 16 0	# nonlinear vars in constraints, objectives, both
 0 0 0 1	# linear network variables; functions; arith, flags
 0 0 0 0 0	# discrete variables: binary, integer, nonlinear (b,c,o)
 53 16	# nonzeros in Jacobian, gradients
 0 0	# max name lengths: constraints, variables
 0 0 0 0 0	# common exprs: b,c,o,c1,o1
b
0 0 5
0 0 5
0 0 5
0 0 5
0 0 5
0 0 5
0 0 5
0 0 5
0 0 5
0 0 5
0 0 5
0 0 5
0 0 5
0 0 5
0 0 5
0 0 5
x16
0 10
1 10
2 10
3 10
4 10
5 10
6 10
7 10
8 10
9 10
10 10
11 10
12 10
13 10
14 10
15 10
r
4 2.5
4 1.1
4 -3.1
4 -3.5
4 1.3
4 2.1
4 2.3
4 -1.5
C0
n0
C1
n0
C2
n0
C3
n0
C4
n0
C5
n0
C6
n0
C7
n0
O0 0
o54
46
o2
o54
3
n1
o5
v0
n2
v0
o54
3
n1
o5
v0
n2
v0
o2
o54
3
n1
o5
v0
n2
v0
o54
3
n1
o5
v3
n2
v3
o2
o54
3
n1
o5
v0
n2
v0
o54
3
n1
o5
v6
n2
v6
o2
o54
3
n1
o5
v0
n2
v0
o54
3
n1
o5
v7
n2
v7
o2
o54
3
n1
o5
v0
n2
v0
o54
3
n1
o5
v15
n2
v15
o2
o54
3
n1
o5
v1
n2
v1
o54
3
n1
o5
v1
n2
v1
o2
o54
3
n1
o5
v1
n2
v1
o54
3
n1
o5
v2
n2
v2
o2
o54
3
n1
o5
v1
n2
v1
o54
3
n1
o5
v6
n2
v6
o2
o54
3
n1
o5
v1
n2
v1
o54
3
n1
o5
v9
n2
v9
o2
o54
3
n1
o5
v2
n2
v2
o54
3
n1
o5
v2
n2
v2
o2
o54
3
n1
o5
v2
n2
v2
o54
3
n1
o5
v6
n2
v6
o2
o54
3
n1
o5
v2
n2
v2
o54
3
n1
o5
v8
n2
v8
o2
o54
3
n1
o5
v2
n2
v2
o54
3
n1
o5
v9
n2
v9
o2
o54
3
n1
o5
v2
n2
v2
o54
3
n1
o5
v13
n2
v13
o2
o54
3
n1
o5
v3
n2
v3
o54
3
n1
o5
v3
n2
v3
o2
o54
3
n1
o5
v3
n2
v3
o54
3
n1
o5
v6
n2
v6
o2
o54
3
n1
o5
v3
n2
v3
o54
3
n1
o5
v10
n2
v10
o2
o54
3
n1
o5
v3
n2
v3
o54
3
n1
o5
v14
n2
v14
o2
o54
3
n1
o5
v4
n2
v4
o54
3
n1
o5
v4
n2
v4
o2
o54
3
n1
o5
v4
n2
v4
o54
3
n1
o5
v5
n2
v5
o2
o54
3
n1
o5
v4
n2
v4
o54
3
n1
o5
v9
n2
v9
o2
o54
3
n1
o5
v4
n2
v4
o54
3
n1
o5
v11
n2
v11
o2
o54
3
n1
o5
v4
n2
v4
o54
3
n1
o5
v15
n2
v15
o2
o54
3
n1
o5
v5
n2
v5
o54
3
n1
o5
v5
n2
v5
o2
o54
3
n1
o5
v5
n2
v5
o54
3
n1
o5
v7
n2
v7
o2
o54
3
n1
o5
v5
n2
v5
o54
3
n1
o5
v14
n2
v14
o2
o54
3
n1
o5
v6
n2
v6
o54
3
n1
o5
v6
n2
v6
o2
o54
3
n1
o5
v6
n2
v6
o54
3
n1
o5
v10
n2
v10
o2
o54
3
n1
o5
v6
n2
v6
o54
3
n1
o5
v12
n2
v12
o2
o54
3
n1
o5
v7
n2
v7
o54
3
n1
o5
v7
n2
v7
o2
o54
3
n1
o5
v7
n2
v7
o54
3
n1
o5
v9
n2
v9
o2
o54
3
n1
o5
v7
n2
v7
o54
3
n1
o5
v14
n2
v14
o2
o54
3
n1
o5
v8
n2
v8
o54
3
n1
o5
v8
n2
v8
o2
o54
3
n1
o5
v8
n2
v8
o54
3
n1
o5
v11
n2
v11
o2
o54
3
n1
o5
v8
n2
v8
o54
3
n1
o5
v15
n2
v15
o2
o54
3
n1
o5
v9
n2
v9
o54
3
n1
o5
v9
n2
v9
o2
o54
3
n1
o5
v9
n2
v9
o54
3
n1
o5
v13
n2
v13
o2
o54
3
n1
o5
v10
n2
v10
o54
3
n1
o5
v10
n2
v10
o2
o54
3
n1
o5
v10
n2
v10
o54
3
n1
o5
v11
n2
v11
o2
o54
3
n1
o5
v10
n2
v10
o54
3
n1
o5
v12
n2
v12
o2
o54
3
n1
o5
v11
n2
v11
o54
3
n1
o5
v13
n2
v13
o2
o54
3
n1
o5
v12
n2
v12
o54
3
n1
o5
v12
n2
v12
o2
o54
3
n1
o5
v12
n2
v12
o54
3
n1
o5
v13
n2
v13
o2
o54
3
n1
o5
v13
n2
v13
o54
3
n1
o5
v13
n2
v13
o2
o54
3
n1
o5
v14
n2
v14
o54
3
n1
o5
v14
n2
v14
o2
o54
3
n1
o5
v15
n2
v15
o54
3
n1
o5
v15
n2
v15
k15
5
10
15
21
27
32
39
44
46
47
48
49
50
51
52
J0 9
0 0.22
1 0.2
2 0.19
3 0.25
4 0.15
5 0.11
6 0.12
7 0.13
8 1
J1 6
0 -1.46
2 -1.3
3 1.82
4 -1.15
6 0.8
9 1
J2 6
0 1.29
1 -0.89
4 -1.16
5 -0.96
7 -0.49
10 1
J3 7
0 -1.1
1 -1.06
2 0.95
3 -0.54
5 -1.78
6 -0.41
11 1
J4 6
3 -1.43
4 1.51
5 0.59
6 -0.33
7 -0.43
12 1
J5 7
1 -1.72
2 -0.33
4 1.62
5 1.24
6 0.21
7 -0.26
13 1
J6 5
0 1.12
3 0.31
6 1.12
8 -0.36
14 1
J7 7
1 0.45
2 0.26
3 -1.1
4 0.58
6 -1.03
7 0.1
15 1
G0 16
0 0
1 0
2 0
3 0
4 0
5 0
6 0
7 0
8 0
9 0
10 0
11 0
12 0
13 0
14 0
15 0
